SystemName          ZrC64
SystemLabel         ZrC64
NumberOfAtoms       64
NumberOfSpecies     2
LatticeConstant     4.7081465726 Ang
#NetCharge          -1
#SpinPolarized .true.

#LRWrite          .true.
PAO.EnergyShift   0.02 eV
MD.UseSaveXV .true.
 
MaxSCFIterations     100
DM.MixingWeight      0.1
DM.NumberPulay       4
DM.Tolerance         1.d-4
 
MeshCutoff         350. Ry
 
XC.functional        GGA
XC.authors           PBE
SolutionMethod       diagon
ElectronicTemperature 300. K
 
#MD.TypeOfRun           Verlet
#MD.Quench              .false.
#MD.InitialTimeStep     1
#MD.FinalTimeStep       2000
#MD.InitialTemperature  0.0 K
#MD.LengthTimeStep      2.0 fs
 
MD.TypeofRun        CG
MD.NumCGsteps       0
MD.MaxForceTol      0.003 eV/Ang

#WriteMullikenPop 2

#MD.TypeofRun FC
#MD.FCDispl 0.04
#MD.FCFirst 1
#MD.FCLast 64

%block ChemicalSpeciesLabel
 1  6  C
 2  40 Zr
%endblock ChemicalSpeciesLabel
 
%block PAO.BasisSizes
C       DZ
Zr      DZP
%endblock PAO.BasisSizes

%block PAO.Basis
Zr 5
n=4 0 2 E 40 4.0
5.0 3.0653107
n=4 1 2 E 40 4.4
5.5 4.7859281
n=4 2 2 E 40 7.2
9.0 4.6426451
n=5 0 2 E 40 7.2
9.0 8.0000000
n=5 1 1 E 40 7.2 Q 1.0185112 18.9636028
9.0
%endblock PAO.Basis


%block LatticeVectors
2.0 0.0 0.0
0.0 2.0 0.0
0.0 0.0 2.0
%endblock LatticeVectors

%block kgrid_Monkhorst_Pack
 1  0  0   0
 0  1  0   0
 0  0  1   0
%endblock kgrid_Monkhorst_Pack
 

AtomicCoordinatesFormat  NotScaledCartesianAng
%block AtomicCoordinatesAndAtomicSpecies
0.00000000	0.00000000	0.00000000	1	C	1
0.00000000	7.06221986	7.06221986	1	C	2
0.00000000	4.70814657	7.06221986	2	Zr	3
0.00000000	2.35407329	7.06221986	1	C	4
0.00000000	0.00000000	7.06221986	2	Zr	5
0.00000000	7.06221986	4.70814657	2	Zr	6
0.00000000	4.70814657	4.70814657	1	C	7
0.00000000	2.35407329	4.70814657	2	Zr	8
0.00000000	0.00000000	4.70814657	1	C	9
0.00000000	7.06221986	2.35407329	1	C	10
0.00000000	4.70814657	2.35407329	2	Zr	11
0.00000000	2.35407329	2.35407329	1	C	12
0.00000000	0.00000000	2.35407329	2	Zr	13
0.00000000	7.06221986	0.00000000	2	Zr	14
0.00000000	4.70814657	0.00000000	1	C	15
0.00000000	2.35407329	0.00000000	2	Zr	16
2.35407329	7.06221986	7.06221986	2	Zr	17
2.35407329	4.70814657	7.06221986	1	C	18
2.35407329	2.35407329	7.06221986	2	Zr	19
2.35407329	0.00000000	7.06221986	1	C	20
2.35407329	7.06221986	4.70814657	1	C	21
2.35407329	4.70814657	4.70814657	2	Zr	22
2.35407329	2.35407329	4.70814657	1	C	23
2.35407329	0.00000000	4.70814657	2	Zr	24
2.35407329	7.06221986	2.35407329	2	Zr	25
2.35407329	4.70814657	2.35407329	1	C	26
2.35407329	2.35407329	2.35407329	2	Zr	27
2.35407329	0.00000000	2.35407329	1	C	28
2.35407329	7.06221986	0.00000000	1	C	29
2.35407329	4.70814657	0.00000000	2	Zr	30
2.35407329	2.35407329	0.00000000	1	C	31
2.35407329	0.00000000	0.00000000	2	Zr	32
4.70814657	7.06221986	7.06221986	1	C	33
4.70814657	4.70814657	7.06221986	2	Zr	34
4.70814657	2.35407329	7.06221986	1	C	35
4.70814657	0.00000000	7.06221986	2	Zr	36
4.70814657	7.06221986	4.70814657	2	Zr	37
4.70814657	4.70814657	4.70814657	1	C	38
4.70814657	2.35407329	4.70814657	2	Zr	39
4.70814657	0.00000000	4.70814657	1	C	40
4.70814657	7.06221986	2.35407329	1	C	41
4.70814657	4.70814657	2.35407329	2	Zr	42
4.70814657	2.35407329	2.35407329	1	C	43
4.70814657	0.00000000	2.35407329	2	Zr	44
4.70814657	7.06221986	0.00000000	2	Zr	45
4.70814657	4.70814657	0.00000000	1	C	46
4.70814657	2.35407329	0.00000000	2	Zr	47
4.70814657	0.00000000	0.00000000	1	C	48
7.06221986	7.06221986	7.06221986	2	Zr	49
7.06221986	4.70814657	7.06221986	1	C	50
7.06221986	2.35407329	7.06221986	2	Zr	51
7.06221986	0.00000000	7.06221986	1	C	52
7.06221986	7.06221986	4.70814657	1	C	53
7.06221986	4.70814657	4.70814657	2	Zr	54
7.06221986	2.35407329	4.70814657	1	C	55
7.06221986	0.00000000	4.70814657	2	Zr	56
7.06221986	7.06221986	2.35407329	2	Zr	57
7.06221986	4.70814657	2.35407329	1	C	58
7.06221986	2.35407329	2.35407329	2	Zr	59
7.06221986	0.00000000	2.35407329	1	C	60
7.06221986	7.06221986	0.00000000	1	C	61
7.06221986	4.70814657	0.00000000	2	Zr	62
7.06221986	2.35407329	0.00000000	1	C	63
7.06221986	0.00000000	0.00000000	2	Zr	64
%endblock AtomicCoordinatesAndAtomicSpecies
