SystemName     ZrC64                                                                           
SystemLabel     ZrC64                                                                           
NumberOfAtoms             64
LatticeConstant          8.897111123           Bohr
# above item originally: LatticeConstant          4.708146573     Ang       
%block LatticeVectors
%block LatticeVectors
 2.0 0.0 0.0
 0.0 2.0 0.0
 0.0 0.0 2.0
AtomicCoordinatesFormat     NotScaledCartesianAng                                                           
%block AtomicCoordinatesAndAtomicSpecies
 0.0000000	0.0000000	0.0000000	1	12
 0.0000000	7.0622199	7.0622199	1	12
 0.0000000	4.7081466	7.0622199	2	90
 0.0000000	2.3540733	7.0622199	1	12
 0.0000000	0.0000000	7.0622199	2	90
 0.0000000	7.0622199	4.7081466	2	90
 0.0000000	4.7081466	4.7081466	1	12
 0.0000000	2.3540733	4.7081466	2	90
 0.0000000	0.0000000	4.7081466	1	12
 0.0000000	7.0622199	2.3540733	1	12
 0.0000000	4.7081466	2.3540733	2	90
 0.0000000	2.3540733	2.3540733	1	12
 0.0000000	0.0000000	2.3540733	2	90
 0.0000000	7.0622199	0.0000000	2	90
 0.0000000	4.7081466	0.0000000	1	12
 0.0000000	2.3540733	0.0000000	2	90
 2.3540733	7.0622199	7.0622199	2	90
 2.3540733	4.7081466	7.0622199	1	12
 2.3540733	2.3540733	7.0622199	2	90
 2.3540733	0.0000000	7.0622199	1	12
 2.3540733	7.0622199	4.7081466	1	12
 2.3540733	4.7081466	4.7081466	2	90
 2.3540733	2.3540733	4.7081466	1	12
 2.3540733	0.0000000	4.7081466	2	90
 2.3540733	7.0622199	2.3540733	2	90
 2.3540733	4.7081466	2.3540733	1	12
 2.3540733	2.3540733	2.3540733	2	90
 2.3540733	0.0000000	2.3540733	1	12
 2.3540733	7.0622199	0.0000000	1	12
 2.3540733	4.7081466	0.0000000	2	90
 2.3540733	2.3540733	0.0000000	1	12
 2.3540733	0.0000000	0.0000000	2	90
 4.7081466	7.0622199	7.0622199	1	12
 4.7081466	4.7081466	7.0622199	2	90
 4.7081466	2.3540733	7.0622199	1	12
 4.7081466	0.0000000	7.0622199	2	90
 4.7081466	7.0622199	4.7081466	2	90
 4.7081466	4.7081466	4.7081466	1	12
 4.7081466	2.3540733	4.7081466	2	90
 4.7081466	0.0000000	4.7081466	1	12
 4.7081466	7.0622199	2.3540733	1	12
 4.7081466	4.7081466	2.3540733	2	90
 4.7081466	2.3540733	2.3540733	1	12
 4.7081466	0.0000000	2.3540733	2	90
 4.7081466	7.0622199	0.0000000	2	90
 4.7081466	4.7081466	0.0000000	1	12
 4.7081466	2.3540733	0.0000000	2	90
 4.7081466	0.0000000	0.0000000	1	12
 7.0622199	7.0622199	7.0622199	2	90
 7.0622199	4.7081466	7.0622199	1	12
 7.0622199	2.3540733	7.0622199	2	90
 7.0622199	0.0000000	7.0622199	1	12
 7.0622199	7.0622199	4.7081466	1	12
 7.0622199	4.7081466	4.7081466	2	90
 7.0622199	2.3540733	4.7081466	1	12
 7.0622199	0.0000000	4.7081466	2	90
 7.0622199	7.0622199	2.3540733	2	90
 7.0622199	4.7081466	2.3540733	1	12
 7.0622199	2.3540733	2.3540733	2	90
 7.0622199	0.0000000	2.3540733	1	12
 7.0622199	7.0622199	0.0000000	1	12
 7.0622199	4.7081466	0.0000000	2	90
 7.0622199	2.3540733	0.0000000	1	12
 7.0622199	0.0000000	0.0000000	2	90
SuperCell_1              0
SuperCell_2              0
SuperCell_3              0
%block BandLines
LatticeConstant          8.897111123           Bohr
# above item originally: LatticeConstant          4.708146573     Ang       
BandLinesScale     pi/a                                                                            
%block BandLines
  1  0.25  0.25  0.25
%endblock BandLines
Eigenvectors              T
Intensities              F     # default value
Vibra.FC     ZrC64.FC     # default value
SystemLabel     ZrC64                                                                           
