SystemName          ZrC64
SystemLabel         ZrC64
NumberOfAtoms       64
NumberOfSpecies     2
LatticeConstant     4.7081465726 Ang
#NetCharge          -1
#SpinPolarized .true.

#LRWrite          .true.
PAO.EnergyShift   0.02 eV
MD.UseSaveXV .true.
 
MaxSCFIterations     100
DM.MixingWeight      0.1
DM.NumberPulay       4
DM.Tolerance         1.d-4
 
MeshCutoff         350. Ry
 
XC.functional        GGA
XC.authors           PBE
SolutionMethod       diagon
ElectronicTemperature 300. K
 
#MD.TypeOfRun           Verlet
#MD.Quench              .false.
#MD.InitialTimeStep     1
#MD.FinalTimeStep       2000
#MD.InitialTemperature  0.0 K
#MD.LengthTimeStep      2.0 fs
 
#MD.TypeofRun        CG
#MD.NumCGsteps       0
#MD.MaxForceTol      0.003 eV/Ang

#WriteMullikenPop 2

#MD.TypeofRun FC
#MD.FCDispl 0.04
#MD.FCFirst 1
#MD.FCLast 64


Eigenvectors = True

AtomicDispl          0.04  Bohr

BandLinesScale       pi/a
%block BandLines
 1  0.25  0.25  0.25
%endblock BandLines

SuperCell_1          0
SuperCell_2          0
SuperCell_3          0


%block ChemicalSpeciesLabel
 1  6  C
 2  40 Zr
%endblock ChemicalSpeciesLabel
 
%block PAO.BasisSizes
C       DZ
Zr      DZP
%endblock PAO.BasisSizes

%block PAO.Basis
Zr 5
n=4 0 2 E 40 4.0
5.0 3.0653107
n=4 1 2 E 40 4.4
5.5 4.7859281
n=4 2 2 E 40 7.2
9.0 4.6426451
n=5 0 2 E 40 7.2
9.0 8.0000000
n=5 1 1 E 40 7.2 Q 1.0185112 18.9636028
9.0
%endblock PAO.Basis


%block LatticeVectors
2.0 0.0 0.0
0.0 2.0 0.0
0.0 0.0 2.0
%endblock LatticeVectors

%block kgrid_Monkhorst_Pack
 1  0  0   0
 0  1  0   0
 0  0  1   0
%endblock kgrid_Monkhorst_Pack
 

AtomicCoordinatesFormat  NotScaledCartesianAng
%block AtomicCoordinatesAndAtomicSpecies
0.0000000	0.0000000	0.0000000	1	12
0.0000000	7.0622199	7.0622199	1	12
0.0000000	4.7081466	7.0622199	2	90
0.0000000	2.3540733	7.0622199	1	12
0.0000000	0.0000000	7.0622199	2	90
0.0000000	7.0622199	4.7081466	2	90
0.0000000	4.7081466	4.7081466	1	12
0.0000000	2.3540733	4.7081466	2	90
0.0000000	0.0000000	4.7081466	1	12
0.0000000	7.0622199	2.3540733	1	12
0.0000000	4.7081466	2.3540733	2	90
0.0000000	2.3540733	2.3540733	1	12
0.0000000	0.0000000	2.3540733	2	90
0.0000000	7.0622199	0.0000000	2	90
0.0000000	4.7081466	0.0000000	1	12
0.0000000	2.3540733	0.0000000	2	90
2.3540733	7.0622199	7.0622199	2	90
2.3540733	4.7081466	7.0622199	1	12
2.3540733	2.3540733	7.0622199	2	90
2.3540733	0.0000000	7.0622199	1	12
2.3540733	7.0622199	4.7081466	1	12
2.3540733	4.7081466	4.7081466	2	90
2.3540733	2.3540733	4.7081466	1	12
2.3540733	0.0000000	4.7081466	2	90
2.3540733	7.0622199	2.3540733	2	90
2.3540733	4.7081466	2.3540733	1	12
2.3540733	2.3540733	2.3540733	2	90
2.3540733	0.0000000	2.3540733	1	12
2.3540733	7.0622199	0.0000000	1	12
2.3540733	4.7081466	0.0000000	2	90
2.3540733	2.3540733	0.0000000	1	12
2.3540733	0.0000000	0.0000000	2	90
4.7081466	7.0622199	7.0622199	1	12
4.7081466	4.7081466	7.0622199	2	90
4.7081466	2.3540733	7.0622199	1	12
4.7081466	0.0000000	7.0622199	2	90
4.7081466	7.0622199	4.7081466	2	90
4.7081466	4.7081466	4.7081466	1	12
4.7081466	2.3540733	4.7081466	2	90
4.7081466	0.0000000	4.7081466	1	12
4.7081466	7.0622199	2.3540733	1	12
4.7081466	4.7081466	2.3540733	2	90
4.7081466	2.3540733	2.3540733	1	12
4.7081466	0.0000000	2.3540733	2	90
4.7081466	7.0622199	0.0000000	2	90
4.7081466	4.7081466	0.0000000	1	12
4.7081466	2.3540733	0.0000000	2	90
4.7081466	0.0000000	0.0000000	1	12
7.0622199	7.0622199	7.0622199	2	90
7.0622199	4.7081466	7.0622199	1	12
7.0622199	2.3540733	7.0622199	2	90
7.0622199	0.0000000	7.0622199	1	12
7.0622199	7.0622199	4.7081466	1	12
7.0622199	4.7081466	4.7081466	2	90
7.0622199	2.3540733	4.7081466	1	12
7.0622199	0.0000000	4.7081466	2	90
7.0622199	7.0622199	2.3540733	2	90
7.0622199	4.7081466	2.3540733	1	12
7.0622199	2.3540733	2.3540733	2	90
7.0622199	0.0000000	2.3540733	1	12
7.0622199	7.0622199	0.0000000	1	12
7.0622199	4.7081466	0.0000000	2	90
7.0622199	2.3540733	0.0000000	1	12
7.0622199	0.0000000	0.0000000	2	90
%endblock AtomicCoordinatesAndAtomicSpecies
